; benchmark generated from python API
(set-info :status unknown)
(declare-fun x_days () Int)
(declare-fun y_days () Int)
(declare-fun z_days () Int)
(assert
 (>= x_days (- 36584)))
(assert
 (<= x_days 36829))
(assert
 (= x_days 8371))
(assert
 (>= y_days (- 36584)))
(assert
 (<= y_days 36829))
(assert
 (>= z_days (- 36584)))
(assert
 (<= z_days 36829))
(assert
 (let ((?x575 (+ x_days 730179)))
 (let ((?x370 (mod ?x575 146097)))
 (let ((?x474 (div ?x370 36524)))
 (let ((?x30 (ite (<= 4 ?x474) 3 ?x474)))
 (let ((?x1254 (- ?x370 (* ?x30 36524))))
 (let ((?x41 (mod ?x1254 1461)))
 (let ((?x200 (div ?x41 365)))
 (let ((?x52 (ite (<= 4 ?x200) 3 ?x200)))
 (let ((?x550 (+ (+ (* (div ?x575 146097) 400) (* ?x30 100)) (* (div ?x1254 1461) 4))))
 (let ((?x592 (+ (+ ?x550 ?x52) 1)))
 (let (($x540 (or (and (= (mod ?x592 4) 0) (and (distinct (mod ?x592 100) 0) true)) (= (mod ?x592 400) 0))))
 (let ((?x300 (- ?x41 (* ?x52 365))))
 (let ((?x728 (ite $x540 31 31)))
 (let (($x340 (>= ?x300 ?x728)))
 (let ((?x692 (ite $x340 (+ (- ?x300 ?x728) 1) (+ (- ?x300 (ite $x540 0 0)) 1))))
 (let ((?x476 (ite $x540 60 59)))
 (let (($x218 (>= ?x300 ?x476)))
 (let ((?x403 (ite $x540 91 90)))
 (let (($x414 (>= ?x300 ?x403)))
 (let ((?x452 (ite $x414 (+ (- ?x300 ?x403) 1) (ite $x218 (+ (- ?x300 ?x476) 1) ?x692))))
 (let ((?x485 (ite $x540 121 120)))
 (let (($x729 (>= ?x300 ?x485)))
 (let ((?x614 (ite $x540 152 151)))
 (let (($x771 (>= ?x300 ?x614)))
 (let ((?x732 (ite $x771 (+ (- ?x300 ?x614) 1) (ite $x729 (+ (- ?x300 ?x485) 1) ?x452))))
 (let ((?x461 (ite $x540 182 181)))
 (let (($x45 (>= ?x300 ?x461)))
 (let ((?x322 (ite $x540 213 212)))
 (let (($x150 (>= ?x300 ?x322)))
 (let ((?x121 (ite $x150 (+ (- ?x300 ?x322) 1) (ite $x45 (+ (- ?x300 ?x461) 1) ?x732))))
 (let ((?x444 (ite $x540 244 243)))
 (let (($x585 (>= ?x300 ?x444)))
 (let ((?x343 (ite $x540 274 273)))
 (let (($x223 (>= ?x300 ?x343)))
 (let ((?x445 (ite $x223 (+ (- ?x300 ?x343) 1) (ite $x585 (+ (- ?x300 ?x444) 1) ?x121))))
 (let ((?x407 (ite $x540 305 304)))
 (let (($x570 (>= ?x300 ?x407)))
 (let ((?x569 (ite $x540 335 334)))
 (let (($x2174 (>= ?x300 ?x569)))
 (let ((?x230 (ite $x2174 (+ (- ?x300 ?x569) 1) (ite $x570 (+ (- ?x300 ?x407) 1) ?x445))))
 (let ((?x2464 (ite $x729 5 (ite $x414 4 (ite $x218 3 (ite $x340 2 1))))))
 (let ((?x731 (ite $x585 9 (ite $x150 8 (ite $x45 7 (ite $x771 6 ?x2464))))))
 (let ((?x2371 (+ (ite $x2174 12 (ite $x570 11 (ite $x223 10 ?x731))) (+ (* 0 12) 1))))
 (let ((?x12 (- ?x2371 1)))
 (let ((?x581 (+ (mod ?x12 12) 1)))
 (let ((?x530 (ite (or (= ?x581 4) (= ?x581 6) (= ?x581 9) (= ?x581 11)) 30 31)))
 (let (($x47 (and (= (mod (+ ?x592 (+ 0 (div ?x12 12))) 4) 0) (and (distinct (mod (+ ?x592 (+ 0 (div ?x12 12))) 100) 0) true))))
 (let (($x658 (or $x47 (= (mod (+ ?x592 (+ 0 (div ?x12 12))) 400) 0))))
 (let ((?x465 (ite (= ?x581 2) (ite $x658 29 28) ?x530)))
 (let ((?x758 (ite (> 1 ?x230) 1 (ite (> ?x230 ?x465) ?x465 ?x230))))
 (let ((?x508 (ite (> 1 ?x758) 1 (ite (> ?x758 ?x465) ?x465 ?x758))))
 (let ((?x549 (ite (= 2 ?x581) (ite $x658 31 31) (ite (= 1 ?x581) (ite $x658 0 0) 0))))
 (let ((?x98 (ite (= 4 ?x581) (ite $x658 91 90) (ite (= 3 ?x581) (ite $x658 60 59) ?x549))))
 (let ((?x266 (ite (= 6 ?x581) (ite $x658 152 151) (ite (= 5 ?x581) (ite $x658 121 120) ?x98))))
 (let ((?x1856 (ite (= 8 ?x581) (ite $x658 213 212) (ite (= 7 ?x581) (ite $x658 182 181) ?x266))))
 (let ((?x697 (ite (= 10 ?x581) (ite $x658 274 273) (ite (= 9 ?x581) (ite $x658 244 243) ?x1856))))
 (let ((?x363 (ite (= 12 ?x581) (ite $x658 335 334) (ite (= 11 ?x581) (ite $x658 305 304) ?x697))))
 (let ((?x513 (+ (* 365 (- (+ ?x592 (+ 0 (div ?x12 12))) 1)) (div (- (+ ?x592 (+ 0 (div ?x12 12))) 1) 4))))
 (let ((?x512 (+ (- ?x513 (div (- (+ ?x592 (+ 0 (div ?x12 12))) 1) 100)) (div (- (+ ?x592 (+ 0 (div ?x12 12))) 1) 400))))
 (let ((?x1986 (+ (+ (- (+ (+ ?x512 ?x363) (- ?x508 1)) 730179) 0) 730179)))
 (let ((?x765 (mod ?x1986 146097)))
 (let ((?x314 (div ?x765 36524)))
 (let ((?x547 (ite (<= 4 ?x314) 3 ?x314)))
 (let ((?x353 (- ?x765 (* ?x547 36524))))
 (let ((?x680 (mod ?x353 1461)))
 (let ((?x7 (div ?x680 365)))
 (let ((?x714 (ite (<= 4 ?x7) 3 ?x7)))
 (let ((?x146 (+ (+ (* (div ?x1986 146097) 400) (* ?x547 100)) (* (div ?x353 1461) 4))))
 (let ((?x325 (+ (+ ?x146 ?x714) 1)))
 (let (($x202 (or (and (= (mod ?x325 4) 0) (and (distinct (mod ?x325 100) 0) true)) (= (mod ?x325 400) 0))))
 (let ((?x118 (- ?x680 (* ?x714 365))))
 (let ((?x359 (ite $x202 31 31)))
 (let (($x2534 (>= ?x118 ?x359)))
 (let ((?x662 (ite $x2534 (+ (- ?x118 ?x359) 1) (+ (- ?x118 (ite $x202 0 0)) 1))))
 (let ((?x423 (ite $x202 60 59)))
 (let (($x274 (>= ?x118 ?x423)))
 (let ((?x562 (ite $x202 91 90)))
 (let (($x93 (>= ?x118 ?x562)))
 (let ((?x132 (ite $x93 (+ (- ?x118 ?x562) 1) (ite $x274 (+ (- ?x118 ?x423) 1) ?x662))))
 (let ((?x190 (ite $x202 121 120)))
 (let (($x1091 (>= ?x118 ?x190)))
 (let ((?x87 (ite $x202 152 151)))
 (let (($x1681 (>= ?x118 ?x87)))
 (let ((?x83 (ite $x1681 (+ (- ?x118 ?x87) 1) (ite $x1091 (+ (- ?x118 ?x190) 1) ?x132))))
 (let ((?x225 (ite $x202 182 181)))
 (let (($x420 (>= ?x118 ?x225)))
 (let ((?x168 (ite $x202 213 212)))
 (let (($x255 (>= ?x118 ?x168)))
 (let ((?x267 (ite $x255 (+ (- ?x118 ?x168) 1) (ite $x420 (+ (- ?x118 ?x225) 1) ?x83))))
 (let ((?x229 (ite $x202 244 243)))
 (let (($x3128 (>= ?x118 ?x229)))
 (let ((?x154 (ite $x202 274 273)))
 (let (($x480 (>= ?x118 ?x154)))
 (let ((?x663 (ite $x480 (+ (- ?x118 ?x154) 1) (ite $x3128 (+ (- ?x118 ?x229) 1) ?x267))))
 (let ((?x24 (ite $x202 305 304)))
 (let (($x1984 (>= ?x118 ?x24)))
 (let ((?x405 (ite $x202 335 334)))
 (let (($x2337 (>= ?x118 ?x405)))
 (let ((?x898 (ite $x2337 (+ (- ?x118 ?x405) 1) (ite $x1984 (+ (- ?x118 ?x24) 1) ?x663))))
 (let (($x520 (= 0 0)))
 (let (($x650 (= (mod (ite $x520 (+ ?x592 (+ 0 (div ?x12 12))) ?x325) 400) 0)))
 (let (($x330 (and (distinct (mod (ite $x520 (+ ?x592 (+ 0 (div ?x12 12))) ?x325) 100) 0) true)))
 (let (($x591 (= (mod (ite $x520 (+ ?x592 (+ 0 (div ?x12 12))) ?x325) 4) 0)))
 (let (($x1725 (or (and $x591 $x330) $x650)))
 (let ((?x2147 (ite $x1091 5 (ite $x93 4 (ite $x274 3 (ite $x2534 2 1))))))
 (let ((?x304 (ite $x3128 9 (ite $x255 8 (ite $x420 7 (ite $x1681 6 ?x2147))))))
 (let ((?x606 (ite $x520 ?x581 (ite $x2337 12 (ite $x1984 11 (ite $x480 10 ?x304))))))
 (let ((?x2804 (ite (= 2 ?x606) (ite $x1725 31 31) (ite (= 1 ?x606) (ite $x1725 0 0) 0))))
 (let ((?x1252 (ite (= 4 ?x606) (ite $x1725 91 90) (ite (= 3 ?x606) (ite $x1725 60 59) ?x2804))))
 (let ((?x1991 (ite (= 6 ?x606) (ite $x1725 152 151) (ite (= 5 ?x606) (ite $x1725 121 120) ?x1252))))
 (let ((?x125 (ite (= 8 ?x606) (ite $x1725 213 212) (ite (= 7 ?x606) (ite $x1725 182 181) ?x1991))))
 (let ((?x399 (ite (= 10 ?x606) (ite $x1725 274 273) (ite (= 9 ?x606) (ite $x1725 244 243) ?x125))))
 (let ((?x1721 (ite (= 12 ?x606) (ite $x1725 335 334) (ite (= 11 ?x606) (ite $x1725 305 304) ?x399))))
 (let ((?x427 (+ ?x592 (+ 0 (div ?x12 12)))))
 (let ((?x2628 (ite $x520 ?x427 ?x325)))
 (let ((?x228 (- ?x2628 1)))
 (let ((?x37 (+ (- (+ (* 365 ?x228) (div ?x228 4)) (div ?x228 100)) (div ?x228 400))))
 (= y_days (- (+ (+ ?x37 ?x1721) (- (ite $x520 ?x508 ?x898) 1)) 730179))))))))))))))))))))))))))))))))))))))))))))))))))))))))))))))))))))))))))))))))))))))))))))))))))))))))))))))))))))))))
(assert
 (= z_days (+ x_days 30)))
(assert
 (not (= y_days z_days)))
(check-sat)
